CNF/complete4G1vecol6.cnf
p cnf 120 370
1 2 3 4 5 6 0
-1 7 0
-2 8 0
-3 9 0
-4 10 0
-5 11 0
-6 12 0
-7 -2 0
-8 -3 0
-9 -4 0
-10 -5 0
-11 -6 0
-12 -7 0
-7 8 0
-8 9 0
-9 10 0
-10 11 0
-11 12 0
12 0
13 14 15 16 17 18 0
-13 19 0
-14 20 0
-15 21 0
-16 22 0
-17 23 0
-18 24 0
-19 -14 0
-20 -15 0
-21 -16 0
-22 -17 0
-23 -18 0
-24 -19 0
-19 20 0
-20 21 0
-21 22 0
-22 23 0
-23 24 0
24 0
25 26 27 28 29 30 0
-25 31 0
-26 32 0
-27 33 0
-28 34 0
-29 35 0
-30 36 0
-31 -26 0
-32 -27 0
-33 -28 0
-34 -29 0
-35 -30 0
-36 -31 0
-31 32 0
-32 33 0
-33 34 0
-34 35 0
-35 36 0
36 0
37 38 39 40 41 42 0
-37 43 0
-38 44 0
-39 45 0
-40 46 0
-41 47 0
-42 48 0
-43 -38 0
-44 -39 0
-45 -40 0
-46 -41 0
-47 -42 0
-48 -43 0
-43 44 0
-44 45 0
-45 46 0
-46 47 0
-47 48 0
48 0
49 50 51 52 53 54 0
-49 55 0
-50 56 0
-51 57 0
-52 58 0
-53 59 0
-54 60 0
-55 -50 0
-56 -51 0
-57 -52 0
-58 -53 0
-59 -54 0
-60 -55 0
-55 56 0
-56 57 0
-57 58 0
-58 59 0
-59 60 0
60 0
61 62 63 64 65 66 0
-61 67 0
-62 68 0
-63 69 0
-64 70 0
-65 71 0
-66 72 0
-67 -62 0
-68 -63 0
-69 -64 0
-70 -65 0
-71 -66 0
-72 -67 0
-67 68 0
-68 69 0
-69 70 0
-70 71 0
-71 72 0
72 0
73 74 75 76 77 78 0
-73 79 0
-74 80 0
-75 81 0
-76 82 0
-77 83 0
-78 84 0
-79 -74 0
-80 -75 0
-81 -76 0
-82 -77 0
-83 -78 0
-84 -79 0
-79 80 0
-80 81 0
-81 82 0
-82 83 0
-83 84 0
84 0
85 86 87 88 89 90 0
-85 91 0
-86 92 0
-87 93 0
-88 94 0
-89 95 0
-90 96 0
-91 -86 0
-92 -87 0
-93 -88 0
-94 -89 0
-95 -90 0
-96 -91 0
-91 92 0
-92 93 0
-93 94 0
-94 95 0
-95 96 0
96 0
97 98 99 100 101 102 0
-97 103 0
-98 104 0
-99 105 0
-100 106 0
-101 107 0
-102 108 0
-103 -98 0
-104 -99 0
-105 -100 0
-106 -101 0
-107 -102 0
-108 -103 0
-103 104 0
-104 105 0
-105 106 0
-106 107 0
-107 108 0
108 0
109 110 111 112 113 114 0
-109 115 0
-110 116 0
-111 117 0
-112 118 0
-113 119 0
-114 120 0
-115 -110 0
-116 -111 0
-117 -112 0
-118 -113 0
-119 -114 0
-120 -115 0
-115 116 0
-116 117 0
-117 118 0
-118 119 0
-119 120 0
120 0
-1 -13 0
-2 -14 0
-3 -15 0
-4 -16 0
-5 -17 0
-6 -18 0
-1 -25 0
-2 -26 0
-3 -27 0
-4 -28 0
-5 -29 0
-6 -30 0
-1 -37 0
-2 -38 0
-3 -39 0
-4 -40 0
-5 -41 0
-6 -42 0
-13 -25 0
-14 -26 0
-15 -27 0
-16 -28 0
-17 -29 0
-18 -30 0
-13 -37 0
-14 -38 0
-15 -39 0
-16 -40 0
-17 -41 0
-18 -42 0
-25 -37 0
-26 -38 0
-27 -39 0
-28 -40 0
-29 -41 0
-30 -42 0
-1 -49 0
-13 -49 0
-2 -50 0
-14 -50 0
-3 -51 0
-15 -51 0
-4 -52 0
-16 -52 0
-5 -53 0
-17 -53 0
-6 -54 0
-18 -54 0
-1 -61 0
-25 -61 0
-2 -62 0
-26 -62 0
-3 -63 0
-27 -63 0
-4 -64 0
-28 -64 0
-5 -65 0
-29 -65 0
-6 -66 0
-30 -66 0
-1 -73 0
-37 -73 0
-2 -74 0
-38 -74 0
-3 -75 0
-39 -75 0
-4 -76 0
-40 -76 0
-5 -77 0
-41 -77 0
-6 -78 0
-42 -78 0
-13 -85 0
-25 -85 0
-14 -86 0
-26 -86 0
-15 -87 0
-27 -87 0
-16 -88 0
-28 -88 0
-17 -89 0
-29 -89 0
-18 -90 0
-30 -90 0
-13 -97 0
-37 -97 0
-14 -98 0
-38 -98 0
-15 -99 0
-39 -99 0
-16 -100 0
-40 -100 0
-17 -101 0
-41 -101 0
-18 -102 0
-42 -102 0
-25 -109 0
-37 -109 0
-26 -110 0
-38 -110 0
-27 -111 0
-39 -111 0
-28 -112 0
-40 -112 0
-29 -113 0
-41 -113 0
-30 -114 0
-42 -114 0
-49 -61 0
-50 -62 0
-51 -63 0
-52 -64 0
-53 -65 0
-54 -66 0
-49 -73 0
-50 -74 0
-51 -75 0
-52 -76 0
-53 -77 0
-54 -78 0
-49 -85 0
-50 -86 0
-51 -87 0
-52 -88 0
-53 -89 0
-54 -90 0
-49 -97 0
-50 -98 0
-51 -99 0
-52 -100 0
-53 -101 0
-54 -102 0
-61 -73 0
-62 -74 0
-63 -75 0
-64 -76 0
-65 -77 0
-66 -78 0
-61 -85 0
-62 -86 0
-63 -87 0
-64 -88 0
-65 -89 0
-66 -90 0
-61 -109 0
-62 -110 0
-63 -111 0
-64 -112 0
-65 -113 0
-66 -114 0
-73 -97 0
-74 -98 0
-75 -99 0
-76 -100 0
-77 -101 0
-78 -102 0
-73 -109 0
-74 -110 0
-75 -111 0
-76 -112 0
-77 -113 0
-78 -114 0
-85 -97 0
-86 -98 0
-87 -99 0
-88 -100 0
-89 -101 0
-90 -102 0
-85 -109 0
-86 -110 0
-87 -111 0
-88 -112 0
-89 -113 0
-90 -114 0
-97 -109 0
-98 -110 0
-99 -111 0
-100 -112 0
-101 -113 0
-102 -114 0
