CNF/complete4G1vecol6.txt
Vertex 0: Color 5
Vertex 1: Color 6
Vertex 2: Color 3
Vertex 3: Color 4
Edge (0, 1): Color 2
Edge (0, 2): Color 4
Edge (0, 3): Color 6
Edge (1, 2): Color 5
Edge (1, 3): Color 3
Edge (2, 3): Color 2
